10J3M/DAT/10J3MUNA-8.dat
10 3
20.3504 414.1388
5.132 26.3374
41.8436 1750.8869
24.9195 620.9815
30.6055 936.6966
6.9101 47.7495
5.255 27.615
39.674 1574.0263
28.5658 816.0049
44.6393 1992.6671
8207.104