10J3M/SOL/10J3MUNA-8.sol
solution status: optimal solution found
objective value:                     82.6317333333333
x#1#1                                               1 	(obj:0)
x#2#1                                               1 	(obj:0)
x#3#2                              0.0920371733470986 	(obj:0)
x#3#3                               0.907962826652901 	(obj:0)
x#4#1                                               1 	(obj:0)
x#5#2                                               1 	(obj:0)
x#6#2                                               1 	(obj:0)
x#7#1                                               1 	(obj:0)
x#8#2                                               1 	(obj:0)
x#9#1                                0.94430519479004 	(obj:0)
x#9#2                                0.05569480520996 	(obj:0)
x#10#3                                              1 	(obj:0)
z                                    82.6317333333333 	(obj:1)
